\ Model LinearProblem
\ LP format - for model browsing. Use MPS format to capture full model detail.
Maximize
  4 C0 + C1 + C2 + 3 C3 + 3 C4 + 3 C5 + 4 C6 + 4 C7 + C8 + 3 C9 + 5 C10
   + 2 C11 + 7 C12 + 6 C13 + 9 C14
Subject To
 R0: C0 = 0
 R1: C1 = 0
 R2: C2 = 0
 R3: C3 = 0
 R4: C4 = 0
 R5: C5 = 0
 R6: C6 = 1
 R7: C7 = 0
 R8: C8 = 0
 R9: C9 = 1
 R10: C10 = 0
 R11: C11 = 0
 R12: C12 = 0
 R13: C13 = 1
 R14: C14 = 0
 R15: 0.3698954459124096 C0 + 0.1115650800742149 C1 + 0.1009482589973277 C2
   >= 1e-08
 R16: 0.1379547904392909 C3 + 0.1021994223877547 C4 + 0.0836738100556612 C5
   >= 1e-08
 R17: 0.3557484522730242 C6 + 0.2912621982358196 C7 + 0.150597105956101 C8
   >= 1e-08
 R18: 0.301194211912202 C9 + 0.4462603202968596 C10
   + 0.1115650800742149 C11 >= 1e-08
 R19: 0.3390708254197088 C12 + 0.2056568514311232 C13
   + 0.1989916959110956 C14 >= 1e-08
 R20: 14 C0 + 15 C1 + 16 C2 <= 150
 R21: 10 C3 + 13 C4 + 15 C5 <= 150
 R22: 9 C6 + 11 C7 + 12 C8 <= 150
 R23: 12 C9 + 15 C10 + 15 C11 <= 150
 R24: 14 C12 + 19 C13 + 21 C14 <= 150
 R25: 9 C0 - C1 - C2 + C7 <= 12
 R26: 10 C0 - 3 C3 + 6 C4 - 3 C5 - C9 - C10 - 2 C11 <= 24
 R27: C1 + C2 + 10 C6 + 2 C7 + 12 C8 <= 18
 R28: <= 22
 R29: 14 C8 + 2 C9 + C10 + 2 C11 + 2 C13 <= 10
 R30: 9 C0 + 3 C3 + 12 C4 + 6 C6 - 3 C7 + C10 <= 8
 R31: 9 C0 + 9 C4 + 13 C8 + 13 C12 - C13 - C14 <= 24
 R32: - C9 - C10 <= 20
 R33: C9 + C10 <= 13
 R34: <= 16
 R35: 10 C0 + 9 C4 + 15 C12 + C14 <= 11
 R36: 14 C12 <= 14
 R37: 9 C4 <= 10
 R38: 11 C6 + 3 C7 + 13 C8 <= 26
 R39: 3 C5 <= 18
 R40: <= 13
 R41: <= 16
 R42: 16 C12 + 2 C13 + 2 C14 <= 20
 R43: C0 + C1 + C2 <= 1
 R44: C3 + C4 + C5 <= 1
 R45: C6 + C7 + C8 <= 1
 R46: C9 + C10 + C11 <= 1
 R47: C12 + C13 + C14 <= 1
Bounds
End
